PROBLEM NAME: eil51_n9
KNAPSACK DATA TYPE: uncorrelated
DIMENSION: 9
NUMBER OF ITEMS: 8
CAPACITY OF KNAPSACK: 845
MIN SPEED: 0.1
MAX SPEED: 1
RENTING RATIO: 2.31
EDGE_WEIGHT_TYPE: CEIL_2D
NODE_COORD_SECTION	(INDEX, X, Y):
1	17	63
2	31	62
3	36	16
4	52	41
5	27	23
6	62	63
7	32	22
8	5	6
9	56	37
ITEMS SECTION	(INDEX, PROFIT, WEIGHT, ASSIGNED NODE NUMBER):
1	992	421	2
2	815	845	6
3	649	322	4
4	506	326	9
5	457	43	3
6	416	248	7
7	237	795	5
8	94	485	8
